% File represents an instance of a Composite Structure problem to be solved by a CP framework
% Created on 2025-03-26 10:42:03.096
T = 58;
n = 36;
m = 60;
edges = [(1, 2),
(8, 7),
(13, 14),
(19, 20),
(25, 26),
(31, 32),
(2, 3),
(8, 9),
(15, 14),
(21, 20),
(27, 26),
(33, 32),
(3, 4),
(9, 10),
(15, 16),
(21, 22),
(27, 28),
(34, 33),
(5, 4),
(10, 11),
(16, 17),
(22, 23),
(29, 28),
(35, 34),
(6, 5),
(12, 11),
(18, 17),
(24, 23),
(30, 29),
(36, 35),
(1, 7),
(13, 7),
(13, 19),
(19, 25),
(25, 31),
(8, 2),
(8, 14),
(14, 20),
(20, 26),
(26, 32),
(9, 3),
(15, 9),
(15, 21),
(21, 27),
(27, 33),
(10, 4),
(10, 16),
(22, 16),
(22, 28),
(34, 28),
(11, 5),
(11, 17),
(23, 17),
(29, 23),
(35, 29),
(6, 12),
(12, 18),
(24, 18),
(30, 24),
(36, 30)];
counts = [|14, 24, 14, 4,
|14, 20, 14, 4,
|14, 14, 14, 4,
|14, 14, 14, 2,
|14, 16, 14, 2,
|14, 20, 14, 4,
|14, 22, 14, 4,
|14, 22, 14, 6,
|14, 18, 14, 6,
|14, 18, 14, 4,
|14, 18, 14, 2,
|14, 18, 14, 4,
|14, 22, 14, 6,
|14, 20, 14, 4,
|14, 20, 14, 6,
|14, 16, 14, 4,
|14, 14, 14, 2,
|14, 16, 14, 4,
|14, 16, 14, 6,
|14, 16, 14, 4,
|14, 18, 14, 6,
|14, 18, 14, 4,
|14, 16, 14, 2,
|16, 16, 16, 4,
|14, 16, 14, 4,
|14, 12, 14, 4,
|14, 14, 14, 6,
|14, 14, 14, 4,
|14, 16, 14, 4,
|16, 16, 16, 6,
|14, 14, 14, 2,
|14, 12, 14, 2,
|14, 14, 14, 2,
|14, 14, 14, 8,
|14, 16, 14, 8,
|16, 16, 16, 10|];
